(declare-const a Real)
(declare-const b Real)
(declare-const c Real)
(assert (= (* a b c) 1))
(assert (> a 0))
(assert (> b 0))
(assert (> c 0))
(assert (not (<= (+ (* -10845584 (pow a 4)) (* 104058 (pow (+ a b) 4)) (* -56606096 (pow a (/ 3538944 3537881)) (pow b (/ 10612580 3537881))) (* 15444416 b (pow a 3)) (* 50342336 a (pow b 3))) 0)))
(check-sat)
(get-model)
(exit)